NAME : kroD100-C-3-1-a__bsl__27318.tour
COMMENT : Length = 27318.000
COMMENT : Generated by compare_sota_instances.py for bsl
TYPE : TOUR
DIMENSION : 100
TOUR_SECTION
29
58
22
42
23
1
50
94
32
97
17
90
98
49
70
89
11
38
34
81
66
8
52
27
24
88
79
13
44
39
43
71
4
93
53
60
62
35
30
51
100
2
37
19
48
92
5
3
40
6
83
59
55
26
87
9
20
25
10
95
56
21
28
12
47
82
14
68
33
45
57
72
99
31
78
65
80
76
86
96
18
85
64
16
63
77
54
91
73
41
84
15
69
46
61
74
7
67
75
36
-1
EOF
